sat
(:eliminated-vars    1
 :max-memory         18.05
 :memory             17.95
 :nlsat-conflicts    3
 :nlsat-propagations 21
 :nlsat-stages       6
 :num-allocs         29830
 :rlimit-count       2544
 :time               0.00)
